data/lp_files/q3/50_3.lp
\ Model foo
\ LP format - for model browsing. Use MPS format to capture full model detail.
Minimize
  z
Subject To
 allocateEach[1]: x[1,1] + x[2,1] + x[3,1] = 1
 allocateEach[2]: x[1,2] + x[2,2] + x[3,2] = 1
 allocateEach[3]: x[1,3] + x[2,3] + x[3,3] = 1
 allocateEach[4]: x[1,4] + x[2,4] + x[3,4] = 1
 allocateEach[5]: x[1,5] + x[2,5] + x[3,5] = 1
 allocateEach[6]: x[1,6] + x[2,6] + x[3,6] = 1
 allocateEach[7]: x[1,7] + x[2,7] + x[3,7] = 1
 allocateEach[8]: x[1,8] + x[2,8] + x[3,8] = 1
 allocateEach[9]: x[1,9] + x[2,9] + x[3,9] = 1
 allocateEach[10]: x[1,10] + x[2,10] + x[3,10] = 1
 allocateAllCash: cashProportion[1] + cashProportion[2] + cashProportion[3]
   = 1
 findWorstP[1,2]: z + 0.0355618776671408 cashProportion[1]
   - 0.0355618776671408 cashProportion[2] + 0.0527204836415363 x[1,1]
   + 0.1202880512091039 x[1,2] + 0.170448079658606 x[1,3]
   + 0.0835881934566145 x[1,4] + 0.0785739687055477 x[1,5]
   + 0.1057610241820768 x[1,6] + 0.0991642958748222 x[1,7]
   + 0.1037695590327169 x[1,8] + 0.0209459459459459 x[1,9]
   + 0.1291785206258891 x[1,10] - 0.0527204836415363 x[2,1]
   - 0.1202880512091039 x[2,2] - 0.170448079658606 x[2,3]
   - 0.0835881934566145 x[2,4] - 0.0785739687055477 x[2,5]
   - 0.1057610241820768 x[2,6] - 0.0991642958748222 x[2,7]
   - 0.1037695590327169 x[2,8] - 0.0209459459459459 x[2,9]
   - 0.1291785206258891 x[2,10] >= 0
 findWorstP[1,3]: z + 0.0355618776671408 cashProportion[1]
   - 0.0355618776671408 cashProportion[3] + 0.0527204836415363 x[1,1]
   + 0.1202880512091039 x[1,2] + 0.170448079658606 x[1,3]
   + 0.0835881934566145 x[1,4] + 0.0785739687055477 x[1,5]
   + 0.1057610241820768 x[1,6] + 0.0991642958748222 x[1,7]
   + 0.1037695590327169 x[1,8] + 0.0209459459459459 x[1,9]
   + 0.1291785206258891 x[1,10] - 0.0527204836415363 x[3,1]
   - 0.1202880512091039 x[3,2] - 0.170448079658606 x[3,3]
   - 0.0835881934566145 x[3,4] - 0.0785739687055477 x[3,5]
   - 0.1057610241820768 x[3,6] - 0.0991642958748222 x[3,7]
   - 0.1037695590327169 x[3,8] - 0.0209459459459459 x[3,9]
   - 0.1291785206258891 x[3,10] >= 0
 findWorstP[2,1]: z - 0.0277762346536304 cashProportion[1]
   + 0.0277762346536304 cashProportion[2] - 0.102119326704072 x[1,1]
   - 0.1240069996111327 x[1,2] - 0.0844397533470363 x[1,3]
   - 0.0339008943947558 x[1,4] - 0.1186878506749625 x[1,5]
   - 0.0612327092939281 x[1,6] - 0.0637881228820621 x[1,7]
   - 0.1316037997889006 x[1,8] - 0.1330898283428698 x[1,9]
   - 0.1193544803066496 x[1,10] + 0.102119326704072 x[2,1]
   + 0.1240069996111327 x[2,2] + 0.0844397533470363 x[2,3]
   + 0.0339008943947558 x[2,4] + 0.1186878506749625 x[2,5]
   + 0.0612327092939281 x[2,6] + 0.0637881228820621 x[2,7]
   + 0.1316037997889006 x[2,8] + 0.1330898283428698 x[2,9]
   + 0.1193544803066496 x[2,10] >= 0
 findWorstP[2,3]: z + 0.0277762346536304 cashProportion[2]
   - 0.0277762346536304 cashProportion[3] + 0.102119326704072 x[2,1]
   + 0.1240069996111327 x[2,2] + 0.0844397533470363 x[2,3]
   + 0.0339008943947558 x[2,4] + 0.1186878506749625 x[2,5]
   + 0.0612327092939281 x[2,6] + 0.0637881228820621 x[2,7]
   + 0.1316037997889006 x[2,8] + 0.1330898283428698 x[2,9]
   + 0.1193544803066496 x[2,10] - 0.102119326704072 x[3,1]
   - 0.1240069996111327 x[3,2] - 0.0844397533470363 x[3,3]
   - 0.0339008943947558 x[3,4] - 0.1186878506749625 x[3,5]
   - 0.0612327092939281 x[3,6] - 0.0637881228820621 x[3,7]
   - 0.1316037997889006 x[3,8] - 0.1330898283428698 x[3,9]
   - 0.1193544803066496 x[3,10] >= 0
 findWorstP[3,1]: z - 0.0327037854631674 cashProportion[1]
   + 0.0327037854631674 cashProportion[3] - 0.0712124928460469 x[1,1]
   - 0.1143487858719647 x[1,2] - 0.1496034666012591 x[1,3]
   - 0.0751532989943586 x[1,4] - 0.0850461940969667 x[1,5]
   - 0.1305535115689641 x[1,6] - 0.025688823481318 x[1,7]
   - 0.0155670018804677 x[1,8] - 0.150666339628812 x[1,9]
   - 0.1494562995666749 x[1,10] + 0.0712124928460469 x[3,1]
   + 0.1143487858719647 x[3,2] + 0.1496034666012591 x[3,3]
   + 0.0751532989943586 x[3,4] + 0.0850461940969667 x[3,5]
   + 0.1305535115689641 x[3,6] + 0.025688823481318 x[3,7]
   + 0.0155670018804677 x[3,8] + 0.150666339628812 x[3,9]
   + 0.1494562995666749 x[3,10] >= 0
 findWorstP[3,2]: z - 0.0327037854631674 cashProportion[2]
   + 0.0327037854631674 cashProportion[3] - 0.0712124928460469 x[2,1]
   - 0.1143487858719647 x[2,2] - 0.1496034666012591 x[2,3]
   - 0.0751532989943586 x[2,4] - 0.0850461940969667 x[2,5]
   - 0.1305535115689641 x[2,6] - 0.025688823481318 x[2,7]
   - 0.0155670018804677 x[2,8] - 0.150666339628812 x[2,9]
   - 0.1494562995666749 x[2,10] + 0.0712124928460469 x[3,1]
   + 0.1143487858719647 x[3,2] + 0.1496034666012591 x[3,3]
   + 0.0751532989943586 x[3,4] + 0.0850461940969667 x[3,5]
   + 0.1305535115689641 x[3,6] + 0.025688823481318 x[3,7]
   + 0.0155670018804677 x[3,8] + 0.150666339628812 x[3,9]
   + 0.1494562995666749 x[3,10] >= 0
Bounds
 z <= 1
 -infinity <= cashProportion[1] <= 1
 -infinity <= cashProportion[2] <= 1
 -infinity <= cashProportion[3] <= 1
Binaries
 x[1,1] x[1,2] x[1,3] x[1,4] x[1,5] x[1,6] x[1,7] x[1,8] x[1,9] x[1,10]
 x[2,1] x[2,2] x[2,3] x[2,4] x[2,5] x[2,6] x[2,7] x[2,8] x[2,9] x[2,10]
 x[3,1] x[3,2] x[3,3] x[3,4] x[3,5] x[3,6] x[3,7] x[3,8] x[3,9] x[3,10]
End
