data/mps_files/q3/50_3.mps
NAME foo
ROWS
 N  OBJ
 E  allocateEach[1]
 E  allocateEach[2]
 E  allocateEach[3]
 E  allocateEach[4]
 E  allocateEach[5]
 E  allocateEach[6]
 E  allocateEach[7]
 E  allocateEach[8]
 E  allocateEach[9]
 E  allocateEach[10]
 E  allocateAllCash
 G  findWorstP[1,2]
 G  findWorstP[1,3]
 G  findWorstP[2,1]
 G  findWorstP[2,3]
 G  findWorstP[3,1]
 G  findWorstP[3,2]
COLUMNS
    z         OBJ       1
    z         findWorstP[1,2]  1
    z         findWorstP[1,3]  1
    z         findWorstP[2,1]  1
    z         findWorstP[2,3]  1
    z         findWorstP[3,1]  1
    z         findWorstP[3,2]  1
    cashProportion[1]  allocateAllCash  1
    cashProportion[1]  findWorstP[1,2]  3.5561877667140827e-02
    cashProportion[1]  findWorstP[1,3]  3.5561877667140827e-02
    cashProportion[1]  findWorstP[2,1]  -2.7776234653630352e-02
    cashProportion[1]  findWorstP[3,1]  -3.2703785463167365e-02
    cashProportion[2]  allocateAllCash  1
    cashProportion[2]  findWorstP[1,2]  -3.5561877667140827e-02
    cashProportion[2]  findWorstP[2,1]  2.7776234653630352e-02
    cashProportion[2]  findWorstP[2,3]  2.7776234653630352e-02
    cashProportion[2]  findWorstP[3,2]  -3.2703785463167365e-02
    cashProportion[3]  allocateAllCash  1
    cashProportion[3]  findWorstP[1,3]  -3.5561877667140827e-02
    cashProportion[3]  findWorstP[2,3]  -2.7776234653630352e-02
    cashProportion[3]  findWorstP[3,1]  3.2703785463167365e-02
    cashProportion[3]  findWorstP[3,2]  3.2703785463167365e-02
    MARKER    'MARKER'                 'INTORG'
    x[1,1]    allocateEach[1]  1
    x[1,1]    findWorstP[1,2]  5.2720483641536274e-02
    x[1,1]    findWorstP[1,3]  5.2720483641536274e-02
    x[1,1]    findWorstP[2,1]  -1.0211932670407198e-01
    x[1,1]    findWorstP[3,1]  -7.1212492846046929e-02
    x[1,2]    allocateEach[2]  1
    x[1,2]    findWorstP[1,2]  1.2028805120910385e-01
    x[1,2]    findWorstP[1,3]  1.2028805120910385e-01
    x[1,2]    findWorstP[2,1]  -1.2400699961113269e-01
    x[1,2]    findWorstP[3,1]  -1.1434878587196469e-01
    x[1,3]    allocateEach[3]  1
    x[1,3]    findWorstP[1,2]  0.170448079658606
    x[1,3]    findWorstP[1,3]  0.170448079658606
    x[1,3]    findWorstP[2,1]  -8.4439753347036267e-02
    x[1,3]    findWorstP[3,1]  -1.4960346660125912e-01
    x[1,4]    allocateEach[4]  1
    x[1,4]    findWorstP[1,2]  8.3588193456614515e-02
    x[1,4]    findWorstP[1,3]  8.3588193456614515e-02
    x[1,4]    findWorstP[2,1]  -3.3900894394755840e-02
    x[1,4]    findWorstP[3,1]  -0.0751532989943586
    x[1,5]    allocateEach[5]  1
    x[1,5]    findWorstP[1,2]  7.8573968705547670e-02
    x[1,5]    findWorstP[1,3]  7.8573968705547670e-02
    x[1,5]    findWorstP[2,1]  -1.1868785067496249e-01
    x[1,5]    findWorstP[3,1]  -8.5046194096966732e-02
    x[1,6]    allocateEach[6]  1
    x[1,6]    findWorstP[1,2]  1.0576102418207682e-01
    x[1,6]    findWorstP[1,3]  1.0576102418207682e-01
    x[1,6]    findWorstP[2,1]  -6.1232709293928107e-02
    x[1,6]    findWorstP[3,1]  -1.3055351156896411e-01
    x[1,7]    allocateEach[7]  1
    x[1,7]    findWorstP[1,2]  0.0991642958748222
    x[1,7]    findWorstP[1,3]  0.0991642958748222
    x[1,7]    findWorstP[2,1]  -6.3788122882062093e-02
    x[1,7]    findWorstP[3,1]  -2.5688823481317961e-02
    x[1,8]    allocateEach[8]  1
    x[1,8]    findWorstP[1,2]  1.0376955903271694e-01
    x[1,8]    findWorstP[1,3]  1.0376955903271694e-01
    x[1,8]    findWorstP[2,1]  -1.3160379978890061e-01
    x[1,8]    findWorstP[3,1]  -1.5567001880467666e-02
    x[1,9]    allocateEach[9]  1
    x[1,9]    findWorstP[1,2]  2.0945945945945947e-02
    x[1,9]    findWorstP[1,3]  2.0945945945945947e-02
    x[1,9]    findWorstP[2,1]  -1.3308982834286984e-01
    x[1,9]    findWorstP[3,1]  -1.5066633962881204e-01
    x[1,10]   allocateEach[10]  1
    x[1,10]   findWorstP[1,2]  1.2917852062588905e-01
    x[1,10]   findWorstP[1,3]  1.2917852062588905e-01
    x[1,10]   findWorstP[2,1]  -1.1935448030664962e-01
    x[1,10]   findWorstP[3,1]  -1.4945629956667486e-01
    x[2,1]    allocateEach[1]  1
    x[2,1]    findWorstP[1,2]  -5.2720483641536274e-02
    x[2,1]    findWorstP[2,1]  1.0211932670407198e-01
    x[2,1]    findWorstP[2,3]  1.0211932670407198e-01
    x[2,1]    findWorstP[3,2]  -7.1212492846046929e-02
    x[2,2]    allocateEach[2]  1
    x[2,2]    findWorstP[1,2]  -1.2028805120910385e-01
    x[2,2]    findWorstP[2,1]  1.2400699961113269e-01
    x[2,2]    findWorstP[2,3]  1.2400699961113269e-01
    x[2,2]    findWorstP[3,2]  -1.1434878587196469e-01
    x[2,3]    allocateEach[3]  1
    x[2,3]    findWorstP[1,2]  -0.170448079658606
    x[2,3]    findWorstP[2,1]  8.4439753347036267e-02
    x[2,3]    findWorstP[2,3]  8.4439753347036267e-02
    x[2,3]    findWorstP[3,2]  -1.4960346660125912e-01
    x[2,4]    allocateEach[4]  1
    x[2,4]    findWorstP[1,2]  -8.3588193456614515e-02
    x[2,4]    findWorstP[2,1]  3.3900894394755840e-02
    x[2,4]    findWorstP[2,3]  3.3900894394755840e-02
    x[2,4]    findWorstP[3,2]  -0.0751532989943586
    x[2,5]    allocateEach[5]  1
    x[2,5]    findWorstP[1,2]  -7.8573968705547670e-02
    x[2,5]    findWorstP[2,1]  1.1868785067496249e-01
    x[2,5]    findWorstP[2,3]  1.1868785067496249e-01
    x[2,5]    findWorstP[3,2]  -8.5046194096966732e-02
    x[2,6]    allocateEach[6]  1
    x[2,6]    findWorstP[1,2]  -1.0576102418207682e-01
    x[2,6]    findWorstP[2,1]  6.1232709293928107e-02
    x[2,6]    findWorstP[2,3]  6.1232709293928107e-02
    x[2,6]    findWorstP[3,2]  -1.3055351156896411e-01
    x[2,7]    allocateEach[7]  1
    x[2,7]    findWorstP[1,2]  -0.0991642958748222
    x[2,7]    findWorstP[2,1]  6.3788122882062093e-02
    x[2,7]    findWorstP[2,3]  6.3788122882062093e-02
    x[2,7]    findWorstP[3,2]  -2.5688823481317961e-02
    x[2,8]    allocateEach[8]  1
    x[2,8]    findWorstP[1,2]  -1.0376955903271694e-01
    x[2,8]    findWorstP[2,1]  1.3160379978890061e-01
    x[2,8]    findWorstP[2,3]  1.3160379978890061e-01
    x[2,8]    findWorstP[3,2]  -1.5567001880467666e-02
    x[2,9]    allocateEach[9]  1
    x[2,9]    findWorstP[1,2]  -2.0945945945945947e-02
    x[2,9]    findWorstP[2,1]  1.3308982834286984e-01
    x[2,9]    findWorstP[2,3]  1.3308982834286984e-01
    x[2,9]    findWorstP[3,2]  -1.5066633962881204e-01
    x[2,10]   allocateEach[10]  1
    x[2,10]   findWorstP[1,2]  -1.2917852062588905e-01
    x[2,10]   findWorstP[2,1]  1.1935448030664962e-01
    x[2,10]   findWorstP[2,3]  1.1935448030664962e-01
    x[2,10]   findWorstP[3,2]  -1.4945629956667486e-01
    x[3,1]    allocateEach[1]  1
    x[3,1]    findWorstP[1,3]  -5.2720483641536274e-02
    x[3,1]    findWorstP[2,3]  -1.0211932670407198e-01
    x[3,1]    findWorstP[3,1]  7.1212492846046929e-02
    x[3,1]    findWorstP[3,2]  7.1212492846046929e-02
    x[3,2]    allocateEach[2]  1
    x[3,2]    findWorstP[1,3]  -1.2028805120910385e-01
    x[3,2]    findWorstP[2,3]  -1.2400699961113269e-01
    x[3,2]    findWorstP[3,1]  1.1434878587196469e-01
    x[3,2]    findWorstP[3,2]  1.1434878587196469e-01
    x[3,3]    allocateEach[3]  1
    x[3,3]    findWorstP[1,3]  -0.170448079658606
    x[3,3]    findWorstP[2,3]  -8.4439753347036267e-02
    x[3,3]    findWorstP[3,1]  1.4960346660125912e-01
    x[3,3]    findWorstP[3,2]  1.4960346660125912e-01
    x[3,4]    allocateEach[4]  1
    x[3,4]    findWorstP[1,3]  -8.3588193456614515e-02
    x[3,4]    findWorstP[2,3]  -3.3900894394755840e-02
    x[3,4]    findWorstP[3,1]  0.0751532989943586
    x[3,4]    findWorstP[3,2]  0.0751532989943586
    x[3,5]    allocateEach[5]  1
    x[3,5]    findWorstP[1,3]  -7.8573968705547670e-02
    x[3,5]    findWorstP[2,3]  -1.1868785067496249e-01
    x[3,5]    findWorstP[3,1]  8.5046194096966732e-02
    x[3,5]    findWorstP[3,2]  8.5046194096966732e-02
    x[3,6]    allocateEach[6]  1
    x[3,6]    findWorstP[1,3]  -1.0576102418207682e-01
    x[3,6]    findWorstP[2,3]  -6.1232709293928107e-02
    x[3,6]    findWorstP[3,1]  1.3055351156896411e-01
    x[3,6]    findWorstP[3,2]  1.3055351156896411e-01
    x[3,7]    allocateEach[7]  1
    x[3,7]    findWorstP[1,3]  -0.0991642958748222
    x[3,7]    findWorstP[2,3]  -6.3788122882062093e-02
    x[3,7]    findWorstP[3,1]  2.5688823481317961e-02
    x[3,7]    findWorstP[3,2]  2.5688823481317961e-02
    x[3,8]    allocateEach[8]  1
    x[3,8]    findWorstP[1,3]  -1.0376955903271694e-01
    x[3,8]    findWorstP[2,3]  -1.3160379978890061e-01
    x[3,8]    findWorstP[3,1]  1.5567001880467666e-02
    x[3,8]    findWorstP[3,2]  1.5567001880467666e-02
    x[3,9]    allocateEach[9]  1
    x[3,9]    findWorstP[1,3]  -2.0945945945945947e-02
    x[3,9]    findWorstP[2,3]  -1.3308982834286984e-01
    x[3,9]    findWorstP[3,1]  1.5066633962881204e-01
    x[3,9]    findWorstP[3,2]  1.5066633962881204e-01
    x[3,10]   allocateEach[10]  1
    x[3,10]   findWorstP[1,3]  -1.2917852062588905e-01
    x[3,10]   findWorstP[2,3]  -1.1935448030664962e-01
    x[3,10]   findWorstP[3,1]  1.4945629956667486e-01
    x[3,10]   findWorstP[3,2]  1.4945629956667486e-01
    MARKER    'MARKER'                 'INTEND'
RHS
    RHS1      allocateEach[1]  1
    RHS1      allocateEach[2]  1
    RHS1      allocateEach[3]  1
    RHS1      allocateEach[4]  1
    RHS1      allocateEach[5]  1
    RHS1      allocateEach[6]  1
    RHS1      allocateEach[7]  1
    RHS1      allocateEach[8]  1
    RHS1      allocateEach[9]  1
    RHS1      allocateEach[10]  1
    RHS1      allocateAllCash  1
BOUNDS
 UP BND1      z         1
 MI BND1      cashProportion[1]
 UP BND1      cashProportion[1]  1
 MI BND1      cashProportion[2]
 UP BND1      cashProportion[2]  1
 MI BND1      cashProportion[3]
 UP BND1      cashProportion[3]  1
 BV BND1      x[1,1]  
 BV BND1      x[1,2]  
 BV BND1      x[1,3]  
 BV BND1      x[1,4]  
 BV BND1      x[1,5]  
 BV BND1      x[1,6]  
 BV BND1      x[1,7]  
 BV BND1      x[1,8]  
 BV BND1      x[1,9]  
 BV BND1      x[1,10] 
 BV BND1      x[2,1]  
 BV BND1      x[2,2]  
 BV BND1      x[2,3]  
 BV BND1      x[2,4]  
 BV BND1      x[2,5]  
 BV BND1      x[2,6]  
 BV BND1      x[2,7]  
 BV BND1      x[2,8]  
 BV BND1      x[2,9]  
 BV BND1      x[2,10] 
 BV BND1      x[3,1]  
 BV BND1      x[3,2]  
 BV BND1      x[3,3]  
 BV BND1      x[3,4]  
 BV BND1      x[3,5]  
 BV BND1      x[3,6]  
 BV BND1      x[3,7]  
 BV BND1      x[3,8]  
 BV BND1      x[3,9]  
 BV BND1      x[3,10] 
ENDATA
